n_object = 4;
max_length = 50;
max_width = 50;
shape = array2d(1..n_object,1..2, [2,3,
                                   4,3,
                                   2,5,
                                   4,5]);